FILENAME:   /home/mcs001/s132664/testsets/IP/miplib2017/neos-935769.mps.gz
SETTINGS:   settings_isopr_minimalindexbranching_avoidsubtreenodes
TIMELIMIT:  7200
OUTPUTNAME: final_miplib_symretope_if_extended_generating_set_cpx_v802__settings_isopr_minimalindexbranching_avoidsubtreenodes__3__
BINNAME:    bin/symmetries.linux.x86_64.gnu.opt.cpx
BASENAME:   neos-935769.mps.gz
SEED:       3
@01 /home/mcs001/s132664/testsets/IP/miplib2017/neos-935769.mps.gz ===========
@02 neos-935769.mps.gz
@03 1686567028
SCIP version 8.0.2 [precision: 8 byte] [memory: block] [mode: optimized] [LP solver: CPLEX 20.1.0.0] [GitHash: 5f0473c]
Copyright (C) 2002-2022 Konrad-Zuse-Zentrum fuer Informationstechnik Berlin (ZIB)

Symmetry handling routines - (c) Marc Pfetsch, Thomas Rehn, Christopher Hojny.
[GitHash: a1587cb]


Turned off presolver <gateextraction>.
reading parameter file <../settings/settings_isopr_minimalindexbranching_avoidsubtreenodes.set> ...

Changed settings:
limits/time = 7200
limits/restarts = 0
randomization/randomseedshift = 3
constraints/orbitope/sepafreq = -1
constraints/orbitope/propfreq = 1
presolving/gateextraction/maxrounds = 0
propagating/isoprune/avoidsubtreenodes = TRUE
useisoprune = TRUE
usebranchfirst = TRUE


solving problem ...

Warning line 6745: row "R6743" for objective function "N" ignored
original problem has 9799 variables (7020 bin, 0 int, 0 impl, 2779 cont) and 6741 constraints
presolving:
(round 1, fast)       2161 del vars, 0 del conss, 0 add conss, 139 chg bounds, 0 chg sides, 0 chg coeffs, 0 upgd conss, 0 impls, 5910 clqs
(round 2, fast)       2161 del vars, 0 del conss, 0 add conss, 139 chg bounds, 139 chg sides, 0 chg coeffs, 0 upgd conss, 0 impls, 5910 clqs
(round 3, fast)       2161 del vars, 0 del conss, 0 add conss, 757 chg bounds, 139 chg sides, 0 chg coeffs, 0 upgd conss, 0 impls, 5910 clqs
(round 4, exhaustive) 2161 del vars, 23 del conss, 0 add conss, 757 chg bounds, 139 chg sides, 0 chg coeffs, 0 upgd conss, 0 impls, 5910 clqs
(round 5, exhaustive) 2161 del vars, 23 del conss, 0 add conss, 757 chg bounds, 139 chg sides, 0 chg coeffs, 6108 upgd conss, 0 impls, 5910 clqs
(round 6, medium)     2161 del vars, 26 del conss, 2 add conss, 757 chg bounds, 141 chg sides, 6 chg coeffs, 6108 upgd conss, 0 impls, 5910 clqs
   (1.1s) probing: 1000/7028 (14.2%) - 0 fixings, 0 aggregations, 17403 implications, 0 bound changes
   (1.1s) probing: 1001/7028 (14.2%) - 0 fixings, 0 aggregations, 17421 implications, 0 bound changes
   (1.1s) probing aborted: 1000/1000 successive useless probings
Required symmetry:			(1 bin, 0 int, 0 cont); (fixed: 0 bin, 1 int, 0 cont)
Time for symmetry detection:		0.16 	(matrix graph, 25366 nodes, 72444 edges)
Number of generators:			27 	(max: 1500)
Log10 of symmetry group order:		9.2
Number of vars moved by some symmetry:	5910
Total time for symmetry detection:	0.16

Turned off presolver <domcol>.
Turned off presolver <components>.

presolving (7 rounds: 7 fast, 4 medium, 3 exhaustive):
 2161 deleted vars, 26 deleted constraints, 2 added constraints, 757 tightened bounds, 0 added holes, 141 changed sides, 6 changed coefficients
 0 implications, 23331 cliques
presolved problem has 7638 variables (7020 bin, 0 int, 618 impl, 0 cont) and 6718 constraints
    189 constraints of type <knapsack>
   5910 constraints of type <setppc>
    610 constraints of type <linear>
      8 constraints of type <logicor>
      1 constraints of type <symmetries>
transformed objective value is always integral (scale: 1)
Presolving Time: 1.23

 time | node  | left  |LP iter|LP it/n|mem/heur|mdpt |frac |vars |cons |cols |rows |cuts |confs|strbr|  dualbound   | primalbound  |  gap   
t 1.3s|     1 |     0 |     0 |     - | trivial|   0 |   - |7638 |6718 |   0 |   0 |   0 |   0 |   0 |-2.019600e+05 | 2.370000e+04 |    Inf 
p 1.4s|     1 |     0 |     0 |     - |  clique|   0 |   - |7638 |6718 |7638 |6717 |   0 |   0 |   0 |-2.019600e+05 | 6.650000e+03 |    Inf 
p 2.3s|     1 |     0 |  3249 |     - | vbounds|   0 | 419 |7638 |6734 |7638 |6717 |   0 |  16 |   0 |-2.019600e+05 | 4.181000e+03 |    Inf 
  3.1s|     1 |     0 |  8856 |     - |    97M |   0 |1578 |7638 |6734 |7638 |6717 |   0 |  16 |   0 | 3.010000e+03 | 4.181000e+03 |  38.90%
L69.2s|     1 |     0 | 11871 |     - |    rens|   0 |1578 |7638 |6734 |7638 |6717 |   0 |  16 |   0 | 3.010000e+03 | 3.667000e+03 |  21.83%
 69.2s|     1 |     0 | 11871 |     - |   101M |   0 |1578 |7638 |6734 |7638 |6717 |   0 |  16 |   0 | 3.010000e+03 | 3.667000e+03 |  21.83%
i69.4s|     1 |     0 | 12573 |     - |  oneopt|   0 |   - |7638 |6734 |7638 |6717 |   0 |  16 |   0 | 3.010000e+03 | 3.467000e+03 |  15.18%
 69.9s|     1 |     2 | 12573 |     - |   101M |   0 |1578 |7638 |6735 |7638 |6717 |   0 |  17 |   0 | 3.010000e+03 | 3.467000e+03 |  15.18%
  129s|   100 |   101 |111228 |1061.1 |   112M |  99 | 194 |7638 |6735 |7638 |6717 |   0 |  17 |   0 | 3.010000e+03 | 3.467000e+03 |  15.18%
r 134s|   110 |   111 |114365 | 992.6 |ziroundi| 109 |  54 |7638 |6735 |7638 |6717 |   0 |  17 |   0 | 3.010000e+03 | 3.460000e+03 |  14.95%
i 134s|   111 |   110 |114365 | 983.5 |  oneopt| 110 |   - |7638 |6735 |7638 |6717 |   0 |  17 |   0 | 3.010000e+03 | 3.140000e+03 |   4.32%
r 164s|   166 |   163 |135744 | 785.3 |ziroundi| 143 |  18 |7638 |6765 |7638 |6717 |   0 |  47 |   0 | 3.010000e+03 | 3.120000e+03 |   3.65%
i 165s|   167 |   164 |136465 | 784.9 |  oneopt| 143 |   - |7638 |6765 |7638 |6717 |   0 |  47 |   0 | 3.010000e+03 | 3.070000e+03 |   1.99%
  184s|   200 |   188 |145790 | 701.6 |   125M | 162 | 146 |7638 |6765 |7638 |6717 |   0 |  47 |   0 | 3.010000e+03 | 3.070000e+03 |   1.99%
* 191s|   210 |   190 |146816 | 672.9 |    LP  | 172 |   - |7638 |6765 |7638 |6717 |   0 |  47 |   0 | 3.010000e+03 | 3.028000e+03 |   0.60%
 time | node  | left  |LP iter|LP it/n|mem/heur|mdpt |frac |vars |cons |cols |rows |cuts |confs|strbr|  dualbound   | primalbound  |  gap   
  246s|   300 |   280 |236229 | 769.4 |   128M | 172 | 106 |7638 |6776 |7638 |6717 |   0 |  58 |   0 | 3.010000e+03 | 3.028000e+03 |   0.60%
r 251s|   309 |   259 |239879 | 758.8 |ziroundi| 172 |   6 |7638 |6776 |7638 |6717 |   0 |  58 |   0 | 3.010000e+03 | 3.021000e+03 |   0.37%
  308s|   400 |   316 |268297 | 656.9 |   131M | 172 |  75 |7638 |6776 |7638 |6717 |   0 |  58 |   0 | 3.010000e+03 | 3.021000e+03 |   0.37%
  374s|   500 |   366 |304107 | 597.1 |   131M | 172 | 205 |7638 |6776 |7638 |6717 |   0 |  58 |   0 | 3.010000e+03 | 3.021000e+03 |   0.37%
  437s|   600 |   418 |335079 | 549.1 |   132M | 172 |  17 |7638 |6776 |7638 |6717 |   0 |  58 |   0 | 3.010000e+03 | 3.021000e+03 |   0.37%
r 445s|   614 |   399 |338947 | 542.9 |ziroundi| 172 |   6 |7638 |6776 |7638 |6717 |   0 |  58 |   0 | 3.010000e+03 | 3.020000e+03 |   0.33%
* 446s|   616 |     0 |339555 | 542.1 |    LP  | 172 |   - |7638 |6776 |7638 |6717 |   0 |  58 |   0 | 3.010000e+03 | 3.010000e+03 |   0.00%

SCIP Status        : problem is solved [optimal solution found]
Solving Time (sec) : 446.29
Solving Nodes      : 616
Primal Bound       : +3.01000000000000e+03 (348 solutions)
Dual Bound         : +3.01000000000000e+03
Gap                : 0.00 %

Number of variables fixed to 0 by isomorphism pruning:	   304
Number of variables fixed to 1 by isomorphism pruning:	    41
@04 1686567475
